p cnf 12 50 
12 -4 9 0
5 -9 4 0
9 1 6 0
9 1 -3 0
-8 7 -6 0
11 -8 -10 0
10 -1 3 0
4 -3 -5 0
-2 -4 -9 0
-7 -11 5 0
10 12 -11 0
8 4 -3 0
10 11 -8 0
7 10 -4 0
11 -6 2 0
-1 -2 -10 0
-6 -1 4 0
-5 -1 -8 0
8 -2 -9 0
-8 5 -4 0
11 2 1 0
-9 -4 -6 0
-3 -6 -2 0
6 -3 -9 0
9 11 -6 0
-1 -11 12 0
11 1 2 0
9 -2 8 0
1 6 3 0
3 4 7 0
-7 9 11 0
10 1 6 0
-2 -4 9 0
4 12 5 0
12 -3 -1 0
3 8 -7 0
-3 -4 -12 0
8 6 -9 0
11 5 -9 0
3 9 -10 0
-6 -3 7 0
3 -2 -5 0
-10 -8 -4 0
9 5 1 0
-12 -11 2 0
7 6 -9 0
1 -11 5 0
-5 12 -9 0
12 11 -8 0
-11 3 1 0
